NAME : random1792309082
COMMENT: random generated with id 1792309082
TYPE : TSP
DIMENSION : 10
EDGE_WEIGHT_TYPE : EUC_2D
NODE_COORD_SECTION
1 0.319684 8.258330
2 3.471104 9.052973
3 2.359811 12.213231
4 10.935163 13.942637
5 3.345444 14.841691
6 6.385302 5.659132
7 7.873027 3.572125
8 15.083746 1.742961
9 17.380204 5.066533
10 2.360874 6.769051
EOF
